single_objective/SL-DABL/OP/problems/op/OPLib-master/solutions/ea4op/gen1/berlin52-gen1-50.sol
NAME : berlin52
TYPE : OP
DIMENSION : 52
COST_LIMIT : 3771
ROUTE_NODES : 37
ROUTE_SCORE : 37
ROUTE_COST : 3751
NODE_SEQUENCE_SECTION
1
49
32
45
19
41
8
9
10
43
4
6
15
5
24
48
38
37
40
39
36
35
34
44
46
16
50
20
23
30
2
7
42
21
31
18
22
-1
DEPOT_SECTION
1
-1
EOF
